NAME: instance_2366
TYPE: TSP
DIMENSION: 20
EDGE_WEIGHT_TYPE: EUC_2D
NODE_COORD_SECTION
0 9.06 50.83
1 29.41 1.10
2 73.74 51.40
3 62.17 59.99
4 24.56 51.00
5 32.74 85.80
6 55.83 5.20
7 21.50 63.33
8 61.23 52.25
9 8.18 50.82
10 14.56 23.39
11 95.48 55.70
12 48.54 89.84
13 6.73 64.83
14 79.66 65.77
15 31.48 98.14
16 30.44 92.60
17 54.81 93.87
18 79.24 61.84
19 28.48 9.88
EOF
